2
1000 1000 
50
117 321 30
137 188 72
143 224 4
301 195 88
278 269 54
139 110 64
353 388 90
285 367 26
303 314 94
272 297 28
160 182 72
334 236 49
359 225 54
203 315 19
232 175 28
313 169 61
113 166 84
298 131 23
135 132 67
191 334 53
232 105 54
125 111 16
136 220 9
333 396 54
281 109 77
249 123 80
301 105 68
306 123 39
229 343 25
137 132 74
198 156 14
377 281 53
141 176 35
257 205 100
392 237 39
312 237 82
184 273 62
274 210 80
350 316 94
278 357 4
325 201 100
256 112 93
240 160 95
242 209 8
330 226 7
369 279 90
327 234 84
271 358 10
366 117 13
280 277 63
